objective value:                                  -10
t_n_0                                               1 	(obj:-1)
t_n_528                                             1 	(obj:-1)
t_n_570                                             1 	(obj:-1)
t_n_607                                             1 	(obj:-1)
t_n_715                                             1 	(obj:-1)
t_n_800                                             1 	(obj:-1)
t_n_822                                             1 	(obj:-1)
t_n_904                                             1 	(obj:-1)
t_n_908                                             1 	(obj:-1)
t_n_978                                             1 	(obj:-1)
